c User generated cnf file
p cnf 14 67
13 7 -13 0 
13 -8 4 0 
10 3 -7 0 
5 -5 14 0 
5 12 -4 0 
4 -7 5 0 
11 12 -1 0 
2 13 -8 0 
1 2 -5 0 
1 1 -5 0 
10 -2 9 0 
4 1 -4 0 
4 -10 5 0 
14 -8 10 0 
2 5 -7 0 
14 -13 9 0 
13 3 -2 0 
13 1 -14 0 
7 -14 3 0 
4 -14 2 0 
2 -14 3 0 
8 -2 14 0 
6 -12 12 0 
9 -13 11 0 
3 -3 13 0 
3 8 -5 0 
12 4 -12 0 
5 -1 4 0 
8 -3 14 0 
4 -7 1 0 
9 -5 8 0 
5 1 -4 0 
4 12 -10 0 
14 9 -13 0 
9 -4 13 0 
1 1 -1 0 
13 9 -12 0 
6 -5 7 0 
14 -3 4 0 
1 -1 6 0 
4 5 -3 0 
14 8 -6 0 
7 -3 14 0 
6 -8 11 0 
8 3 -7 0 
2 -8 5 0 
6 -8 9 0 
4 -13 12 0 
11 8 -12 0 
11 -9 13 0 
5 -4 14 0 
9 -10 13 0 
9 10 -3 0 
11 3 -7 0 
2 -6 7 0 
3 13 -4 0 
12 4 -5 0 
10 1 -9 0 
14 10 -1 0 
1 -10 4 0 
6 11 -13 0 
2 -9 4 0 
9 -3 10 0 
5 13 -8 0 
11 -7 10 0 
10 -4 13 0 
12 -4 5 0 
